networks/zoo_76_844/zoo_76_844-lower.txt
Number of groups: 38
Flow 1: {1 2 0} {2 40 0} 
Flow 2: {1 4 0} {4 42 0} 
Flow 3: {2 8 0} {8 5 0} {5 43 0} 
Flow 4: {1 7 0} {7 45 0} 
Flow 5: {8 46 0} 
Flow 6: {2 10 0} {10 24 0} {24 9 0} {9 47 0} 
Flow 7: {10 48 0} 
Flow 8: {4 12 0} {12 29 0} {29 11 0} {11 49 0} 
Flow 9: {12 50 0} 
Flow 10: {1 35 0} {35 13 0} {13 51 0} 
Flow 11: {35 14 0} {14 52 0} 
Flow 12: {35 15 0} {15 53 0} 
Flow 13: {14 16 0} {16 54 0} 
Flow 14: {35 17 0} {17 55 0} 
Flow 15: {35 18 0} {18 56 0} 
Flow 16: {24 19 0} {19 57 0} 
Flow 17: {5 20 0} {20 58 0} 
Flow 18: {19 23 0} {23 61 0} 
Flow 19: {24 62 0} 
Flow 20: {16 34 0} {34 26 0} {26 64 0} 
Flow 21: {7 21 0} {21 28 0} {28 27 0} {27 65 0} 
Flow 22: {28 66 0} 
Flow 23: {29 67 0} 
Flow 24: {12 30 0} {30 68 0} 
Flow 25: {37 31 0} {31 69 0} 
Flow 25: {35 36 0} {36 37 0} Flow 26: {14 33 0} {33 32 0} {32 70 0} 
Flow 27: {33 71 0} 
Flow 28: {35 73 0} 
Flow 29: {36 74 0} 
Flow 30: {37 75 0} 
Flow 31: {11 38 0} {38 76 0} 
Flow 32: {2 1 0} {1 39 0} 
Flow 33: {4 3 0} {3 41 0} 
Flow 50: {19 22 0} {22 60 0} 
Flow 61: {34 72 0} 
Flow 66: {3 4 0} {4 1 0} Flow 93: {11 31 0} Flow 100: {5 8 0} {8 2 0} Flow 105: {20 9 0} Flow 115: {9 24 0} Flow 120: {19 28 0} {27 26 0} Flow 132: {6 20 0} {20 5 0} Flow 134: {7 1 0} Flow 142: {7 35 0} Flow 147: {28 19 0} Flow 182: {24 10 0} {10 2 0} Flow 185: {9 20 0} Flow 248: {11 29 0} {29 12 0} {12 4 0} Flow 258: {31 37 0} {37 36 0} {36 35 0} Flow 259: {31 32 0} {32 33 0} {33 14 0} Flow 261: {33 16 0} Flow 270: {26 27 0} Flow 305: {13 7 0} Flow 313: {13 35 0} {31 11 0} Flow 337: {14 35 0} {35 1 0} Flow 341: {35 7 0} Flow 345: {32 31 0} Flow 365: {15 35 0} Flow 366: {16 14 0} Flow 372: {16 33 0} Flow 375: {27 28 0} Flow 385: {17 35 0} Flow 403: {21 59 0} 
Flow 407: {35 25 0} {25 63 0} 
Flow 421: {28 21 0} {21 7 0} Flow 422: {19 24 0} Flow 431: {7 13 0} Flow 434: {26 34 0} {34 16 0} Flow 515: {22 19 0} Flow 540: {23 19 0} Flow 597: {25 35 0} Flow 691: {30 12 0} Flow 744: {20 6 0} {6 44 0} 
Flow 828: {38 11 0} Time taken running everything: 0 seconds
