networks/zoo_76_844/zoo_76_844-lower.sol
<?xml version = "1.0" encoding="UTF-8" standalone="yes"?>
<CPLEXSolution version="1.2">
 <header
   problemName="networks/zoo_76_844/zoo_76_844-lower.lp"
   solutionName="incumbent"
   solutionIndex="-1"
   objectiveValue="38"
   solutionTypeValue="3"
   solutionTypeString="primal"
   solutionStatusValue="101"
   solutionStatusString="integer optimal solution"
   solutionMethodString="mip"
   primalFeasible="1"
   dualFeasible="1"
   MIPNodes="0"
   MIPIterations="0"
   writeLevel="3"/>
 <quality
   epInt="1.0000000000000001e-05"
   epRHS="9.9999999999999995e-07"
   maxIntInfeas="0"
   maxPrimalInfeas="0"
   maxX="1"
   maxSlack="1"/>
 <variables>
  <variable name="Y(1,2)" index="1" value="1"/>
  <variable name="Y(2,4)" index="79" value="1"/>
  <variable name="Y(3,5)" index="156" value="1"/>
  <variable name="Y(4,7)" index="234" value="1"/>
  <variable name="Y(5,8)" index="311" value="1"/>
  <variable name="Y(6,9)" index="388" value="1"/>
  <variable name="Y(7,10)" index="465" value="1"/>
  <variable name="Y(8,11)" index="542" value="1"/>
  <variable name="Y(9,12)" index="619" value="1"/>
  <variable name="Y(10,13)" index="696" value="1"/>
  <variable name="Y(11,14)" index="773" value="1"/>
  <variable name="Y(12,15)" index="850" value="1"/>
  <variable name="Y(13,16)" index="927" value="1"/>
  <variable name="Y(14,17)" index="1004" value="1"/>
  <variable name="Y(15,18)" index="1081" value="1"/>
  <variable name="Y(16,19)" index="1158" value="1"/>
  <variable name="Y(17,20)" index="1235" value="1"/>
  <variable name="Y(18,23)" index="1314" value="1"/>
  <variable name="Y(19,24)" index="1391" value="1"/>
  <variable name="Y(20,26)" index="1469" value="1"/>
  <variable name="Y(21,27)" index="1546" value="1"/>
  <variable name="Y(22,28)" index="1623" value="1"/>
  <variable name="Y(23,29)" index="1700" value="1"/>
  <variable name="Y(24,30)" index="1777" value="1"/>
  <variable name="Y(25,31)" index="1854" value="1"/>
  <variable name="Y(26,32)" index="1931" value="1"/>
  <variable name="Y(27,33)" index="2008" value="1"/>
  <variable name="Y(28,35)" index="2086" value="1"/>
  <variable name="Y(29,36)" index="2163" value="1"/>
  <variable name="Y(30,37)" index="2240" value="1"/>
  <variable name="Y(31,38)" index="2317" value="1"/>
  <variable name="Y(32,1)" index="2356" value="1"/>
  <variable name="Y(33,3)" index="2434" value="1"/>
  <variable name="Y(50,22)" index="3745" value="1"/>
  <variable name="Y(61,34)" index="4593" value="1"/>
  <variable name="Y(403,21)" index="30572" value="1"/>
  <variable name="Y(407,25)" index="30880" value="1"/>
  <variable name="Y(744,6)" index="56473" value="1"/>
  <variable name="X(1,2,1)" index="64144" value="1"/>
  <variable name="X(1,4,2)" index="64989" value="1"/>
  <variable name="X(1,7,4)" index="65835" value="1"/>
  <variable name="X(1,35,10)" index="66685" value="1"/>
  <variable name="X(1,39,32)" index="67551" value="1"/>
  <variable name="X(2,1,32)" index="68395" value="1"/>
  <variable name="X(2,8,3)" index="69210" value="1"/>
  <variable name="X(2,10,6)" index="70057" value="1"/>
  <variable name="X(2,40,1)" index="70896" value="1"/>
  <variable name="X(3,4,66)" index="71805" value="1"/>
  <variable name="X(3,41,33)" index="72616" value="1"/>
  <variable name="X(4,1,66)" index="73493" value="1"/>
  <variable name="X(4,3,33)" index="74304" value="1"/>
  <variable name="X(4,12,8)" index="75123" value="1"/>
  <variable name="X(4,42,2)" index="75961" value="1"/>
  <variable name="X(5,8,100)" index="76903" value="1"/>
  <variable name="X(5,20,17)" index="77664" value="1"/>
  <variable name="X(5,43,3)" index="78494" value="1"/>
  <variable name="X(6,20,132)" index="79467" value="1"/>
  <variable name="X(6,44,744)" index="80923" value="1"/>
  <variable name="X(7,1,134)" index="81157" value="1"/>
  <variable name="X(7,13,431)" index="82298" value="1"/>
  <variable name="X(7,21,21)" index="82732" value="1"/>
  <variable name="X(7,35,142)" index="83697" value="1"/>
  <variable name="X(7,45,4)" index="84403" value="1"/>
  <variable name="X(8,2,100)" index="85343" value="1"/>
  <variable name="X(8,5,3)" index="86090" value="1"/>
  <variable name="X(8,46,5)" index="86936" value="1"/>
  <variable name="X(9,20,185)" index="87960" value="1"/>
  <variable name="X(9,24,115)" index="88734" value="1"/>
  <variable name="X(9,47,6)" index="89469" value="1"/>
  <variable name="X(10,2,182)" index="90489" value="1"/>
  <variable name="X(10,24,6)" index="91157" value="1"/>
  <variable name="X(10,48,7)" index="92002" value="1"/>
  <variable name="X(11,29,248)" index="93087" value="1"/>
  <variable name="X(11,31,93)" index="93776" value="1"/>
  <variable name="X(11,38,31)" index="94558" value="1"/>
  <variable name="X(11,49,8)" index="95379" value="1"/>
  <variable name="X(12,4,248)" index="96463" value="1"/>
  <variable name="X(12,29,8)" index="97067" value="1"/>
  <variable name="X(12,30,24)" index="97927" value="1"/>
  <variable name="X(12,50,9)" index="98756" value="1"/>
  <variable name="X(13,7,305)" index="99896" value="1"/>
  <variable name="X(13,35,313)" index="100748" value="1"/>
  <variable name="X(13,51,10)" index="101289" value="1"/>
  <variable name="X(14,16,13)" index="102136" value="1"/>
  <variable name="X(14,33,26)" index="102993" value="1"/>
  <variable name="X(14,35,337)" index="104148" value="1"/>
  <variable name="X(14,52,11)" index="104666" value="1"/>
  <variable name="X(15,35,365)" index="105864" value="1"/>
  <variable name="X(15,53,12)" index="106355" value="1"/>
  <variable name="X(16,14,366)" index="107553" value="1"/>
  <variable name="X(16,33,372)" index="108403" value="1"/>
  <variable name="X(16,34,20)" index="108895" value="1"/>
  <variable name="X(16,54,13)" index="109732" value="1"/>
  <variable name="X(17,35,385)" index="110948" value="1"/>
  <variable name="X(17,55,14)" index="111421" value="1"/>
  <variable name="X(18,56,15)" index="112266" value="1"/>
  <variable name="X(19,22,50)" index="113145" value="1"/>
  <variable name="X(19,23,18)" index="113957" value="1"/>
  <variable name="X(19,24,422)" index="115205" value="1"/>
  <variable name="X(19,28,120)" index="115747" value="1"/>
  <variable name="X(19,57,16)" index="116487" value="1"/>
  <variable name="X(20,5,132)" index="117447" value="1"/>
  <variable name="X(20,6,744)" index="118903" value="1"/>
  <variable name="X(20,9,105)" index="119108" value="1"/>
  <variable name="X(20,58,17)" index="119864" value="1"/>
  <variable name="X(21,7,421)" index="121112" value="1"/>
  <variable name="X(21,28,21)" index="121556" value="1"/>
  <variable name="X(21,59,403)" index="122782" value="1"/>
  <variable name="X(22,19,515)" index="123738" value="1"/>
  <variable name="X(22,60,50)" index="124117" value="1"/>
  <variable name="X(23,19,540)" index="125451" value="1"/>
  <variable name="X(23,61,18)" index="125773" value="1"/>
  <variable name="X(24,9,6)" index="126605" value="1"/>
  <variable name="X(24,10,182)" index="127625" value="1"/>
  <variable name="X(24,19,16)" index="128303" value="1"/>
  <variable name="X(24,62,19)" index="129150" value="1"/>
  <variable name="X(25,35,597)" index="130572" value="1"/>
  <variable name="X(25,63,407)" index="131226" value="1"/>
  <variable name="X(26,27,270)" index="131933" value="1"/>
  <variable name="X(26,34,434)" index="132941" value="1"/>
  <variable name="X(26,64,20)" index="133371" value="1"/>
  <variable name="X(27,26,120)" index="134315" value="1"/>
  <variable name="X(27,28,375)" index="135414" value="1"/>
  <variable name="X(27,65,21)" index="135904" value="1"/>
  <variable name="X(28,19,147)" index="136874" value="1"/>
  <variable name="X(28,21,421)" index="137992" value="1"/>
  <variable name="X(28,27,21)" index="138436" value="1"/>
  <variable name="X(28,66,22)" index="139281" value="1"/>
  <variable name="X(29,11,8)" index="140111" value="1"/>
  <variable name="X(29,12,248)" index="141195" value="1"/>
  <variable name="X(29,67,23)" index="141814" value="1"/>
  <variable name="X(30,12,691)" index="143326" value="1"/>
  <variable name="X(30,68,24)" index="143503" value="1"/>
  <variable name="X(31,11,313)" index="144636" value="1"/>
  <variable name="X(31,32,259)" index="145426" value="1"/>
  <variable name="X(31,37,258)" index="146269" value="1"/>
  <variable name="X(31,69,25)" index="146880" value="1"/>
  <variable name="X(32,31,345)" index="148044" value="1"/>
  <variable name="X(32,33,259)" index="148802" value="1"/>
  <variable name="X(32,70,26)" index="149413" value="1"/>
  <variable name="X(33,14,259)" index="150490" value="1"/>
  <variable name="X(33,16,261)" index="151336" value="1"/>
  <variable name="X(33,32,26)" index="151945" value="1"/>
  <variable name="X(33,71,27)" index="152790" value="1"/>
  <variable name="X(34,16,434)" index="154041" value="1"/>
  <variable name="X(34,26,20)" index="154471" value="1"/>
  <variable name="X(34,72,61)" index="155356" value="1"/>
  <variable name="X(35,1,337)" index="156476" value="1"/>
  <variable name="X(35,7,341)" index="157324" value="1"/>
  <variable name="X(35,13,10)" index="157837" value="1"/>
  <variable name="X(35,14,11)" index="158682" value="1"/>
  <variable name="X(35,15,12)" index="159527" value="1"/>
  <variable name="X(35,17,14)" index="160373" value="1"/>
  <variable name="X(35,18,15)" index="161218" value="1"/>
  <variable name="X(35,25,407)" index="162454" value="1"/>
  <variable name="X(35,36,25)" index="162916" value="1"/>
  <variable name="X(35,73,28)" index="163763" value="1"/>
  <variable name="X(36,35,258)" index="164837" value="1"/>
  <variable name="X(36,37,25)" index="165448" value="1"/>
  <variable name="X(36,74,29)" index="166296" value="1"/>
  <variable name="X(37,31,25)" index="167136" value="1"/>
  <variable name="X(37,36,258)" index="168213" value="1"/>
  <variable name="X(37,75,30)" index="168829" value="1"/>
  <variable name="X(38,11,828)" index="170471" value="1"/>
  <variable name="X(38,76,31)" index="170518" value="1"/>
 </variables>
</CPLEXSolution>
